NAME : XML100_3153_03
DIMENSION : 101
NB_CLUSTERS : 24
CLUSTERING_ALG : KMeans
CLUSTERING_PARAMS : k(23)
CLUSTERS
1 0
2 11 20 36 44 97
3 2 47 78 80 85
4 18 22 38 40 55 63 67 68 79 98
5 10 25 61 65 70 83
6 13 33 37 39 66 90
7 23 29 49 52 87 100
8 60 72 77
9 30 34 96
10 17 82 84 86 92
11 8 45 54
12 6 32 50 75
13 4 28 53 91
14 14 15 93
15 19 27 88
16 69 71
17 7 24 59 95
18 1 56 57 58
19 3 16 26 46 48 51 89 99
20 12 31 41 74
21 5 62
22 9 76 94
23 21 42 43 81
24 35 64 73
EOF